0,868,255,204,83,894,750,471,942,483
868,0,728,863,51,252,423,285,622,634
255,728,0,9,469,890,257,401,579,966
204,863,9,0,655,585,766,607,964,23
83,51,469,655,0,643,666,456,476,67
894,252,890,585,643,0,535,514,63,935
750,423,257,766,666,535,0,657,936,740
471,285,401,607,456,514,657,0,158,298
942,622,579,964,476,63,936,158,0,230
483,634,966,23,67,935,740,298,230,0
